Traveling Salesman Problem/TSP_generados/Aleatorio1620390920_8.tsp
NAME: Aleatorio1620390920_8.tsp
COMMENT: Randomly generated scenario
TYPE: TSP
DIMENSION: 8
EDGE_WEIGHT_TYPE: ATT
NODE_COORD_SECTION
1 17.44 33.65
2 16.43 46.73
3 12.1 13.01
4 48.78 20.04
5 37.16 32.42
6 31.4 18.16
7 30.54 25.06
8 37.12 38.91
