Traveling Salesman Problem/TSP_generados/Aleatorio1620390920_8.opt.tour
NAME: Aleatorio1620390920_8.opt.tour
COMMENT: Optimal solution for Aleatorio1620390920_8 (125.87311360545213)
TYPE: TOUR
DIMENSION: 8
TOUR_SECTION
1 3 6 7 4 5 8 2
-1
EOF
